&CONTROL
  calculation = 'scf'
  restart_mode = 'from_scratch'
  pseudo_dir = './'
  outdir = './tmp'
  wf_collect = .true.
/

&SYSTEM
  ibrav   = 0
  ntyp    = 2
  nat     = 2
  ecutwfc = 50.0
/

&ELECTRONS
  electron_maxstep = 150
  mixing_beta = 0.5
/

ATOMIC_SPECIES
Cu   63.54  Cu.11.LDA.gth
Mo   95.96  Mo.14.LDA.gth

ATOMIC_POSITIONS bohr
Cu   0.0  0.0  0.0
Mo   2.5  0.0  0.0

K_POINTS crystal
1
0.0   0.0   0.0   1.0

CELL_PARAMETERS bohr
16.0   0.0   0.0
 0.0  16.0   0.0
 0.0   0.0  16.0


