&CONTROL
  calculation = 'scf'
  restart_mode = 'from_scratch'
  pseudo_dir = './'
  outdir = './tmp'
  wf_collect = .true.
/

&SYSTEM
  ibrav   = 0
  ntyp    = 1
  nat     = 1
  ecutwfc = 35.0
/

&ELECTRONS
  electron_maxstep = 1
  mixing_beta = 0.5
/

ATOMIC_SPECIES
N   14.00  N.5.LDA.gth

ATOMIC_POSITIONS crystal
N   0.0  0.0  0.0

K_POINTS crystal
1
0.0   0.0   0.0   1.0

CELL_PARAMETERS bohr
16.0   0.0   0.0
 0.0  16.0   0.0
 0.0   0.0  16.0


