&CONTROL
  calculation = 'scf'
  restart_mode = 'from_scratch'
  pseudo_dir = './'
  outdir = './tmp'
  wf_collect = .true.
/

&SYSTEM
  ibrav   = 0
  ntyp    = 2
  nat     = 2
  ecutwfc = 100.0
/

&ELECTRONS
  electron_maxstep = 150
  mixing_beta = 0.5
/

ATOMIC_SPECIES
Li   3.00  Li.3.LDA.gth
H    1.00  H.1.LDA.gth

ATOMIC_POSITIONS angstrom
H       3.48341768       4.23341768       4.23341768 
Li      4.98341768       4.23341768       4.23341768

K_POINTS crystal
1
0.0   0.0   0.0   1.0

CELL_PARAMETERS bohr
16.0   0.0   0.0
 0.0  16.0   0.0
 0.0   0.0  16.0

OCCUPATIONS
 2.0  1.0


