&CONTROL
  calculation = 'scf'
  restart_mode = 'from_scratch'
  pseudo_dir = '/home/efefer/pseudo'
  outdir = './tmp'
  wf_collect = .true.
/

&SYSTEM
  ibrav   = 0
  ntyp    = 1
  nat     = 1
  ecutwfc = 30.0
  nbnd    = 2
/

&ELECTRONS
  electron_maxstep = 150
  mixing_beta = 0.5
/

ATOMIC_SPECIES
H   1.00  H.pbe-kjpaw.UPF

ATOMIC_POSITIONS crystal
H   0.5  0.5  0.5

K_POINTS crystal
1
0.0   0.0   0.0   1.0

CELL_PARAMETERS bohr
10.0   0.0   0.0
 5.0   5.0   0.0
 0.0   0.0  10.0


