&CONTROL
  calculation = 'scf'
  restart_mode = 'from_scratch'
  pseudo_dir = './'
  outdir = './tmp'
  wf_collect = .true.
/

&SYSTEM
  ibrav   = 0
  ntyp    = 1
  nat     = 1
  ecutwfc = 200.0
/

&ELECTRONS
  startingwfc = 'random'
  electron_maxstep = 150
  mixing_beta = 0.5
/

ATOMIC_SPECIES
Be   1.00  Be.2.LDA.gth

ATOMIC_POSITIONS angstrom
Be   0.0  0.0  0.0

K_POINTS crystal
1
0.0   0.0   0.0   1.0

CELL_PARAMETERS bohr
16.0   0.0   0.0
 0.0  16.0   0.0
 0.0   0.0  16.0


